100 100 100
50
82 23 98
100 36 74
7 95 73
94 31 90
69 5 88
18 92 79
89 75 7
95 12 84
68 39 83
99 19 86
78 39 86
15 91 86
79 3 87
33 94 95
43 12 26
42 84 96
37 84 67
94 46 92
95 14 85
73 4 66
99 69 85
86 43 82
96 34 83
79 96 20
90 43 82
67 25 91
67 11 85
99 19 81
77 38 96
89 87 50
85 10 88
1 38 1
42 45 32
85 10 88
95 23 83
100 71 8
34 72 83
32 8 27
68 28 70
79 14 92
78 43 68
69 9 72
86 27 91
37 49 42
7 48 2
87 20 72
84 11 97
100 4 96
82 6 85
90 17 81
